p cnf 1118 2450
1 0
2 0
3 0
4 0
5 0
6 0
7 0
8 0
9 0
10 0
-11 0
-12 0
-13 0
-14 0
-15 0
-16 0
-17 0
-18 0
-19 0
-20 0
-21 22 0
-23 22 0
21 23 -22 0
24 -22 0
-24 22 0
-25 26 0
-27 26 0
25 27 -26 0
23 -26 0
-23 26 0
-28 29 0
-30 29 0
28 30 -29 0
27 -29 0
-27 29 0
-31 32 0
-33 32 0
31 33 -32 0
30 -32 0
-30 32 0
-34 35 0
-36 35 0
34 36 -35 0
33 -35 0
-33 35 0
-34 37 0
-38 37 0
34 38 -37 0
36 -37 0
-36 37 0
-39 40 0
-41 40 0
39 41 -40 0
42 -40 0
-42 40 0
-43 44 0
-45 44 0
43 45 -44 0
41 -44 0
-41 44 0
-46 47 0
-48 47 0
46 48 -47 0
45 -47 0
-45 47 0
-49 50 0
-51 50 0
49 51 -50 0
48 -50 0
-48 50 0
-52 53 0
-54 53 0
52 54 -53 0
51 -53 0
-51 53 0
-46 55 0
-49 55 0
-52 55 0
-56 55 0
46 49 52 56 -55 0
54 -55 0
-54 55 0
-57 58 0
-59 58 0
57 59 -58 0
60 -58 0
-60 58 0
-61 62 0
-63 62 0
61 63 -62 0
59 -62 0
-59 62 0
-64 65 0
-66 65 0
64 66 -65 0
63 -65 0
-63 65 0
-57 67 0
-61 67 0
-64 67 0
-68 67 0
57 61 64 68 -67 0
66 -67 0
-66 67 0
-69 70 0
-71 70 0
69 71 -70 0
72 -70 0
-72 70 0
-73 74 0
-75 74 0
73 75 -74 0
71 -74 0
-71 74 0
-76 77 0
-78 77 0
76 78 -77 0
75 -77 0
-75 77 0
-79 80 0
-81 80 0
79 81 -80 0
78 -80 0
-78 80 0
-82 83 0
-84 83 0
82 84 -83 0
81 -83 0
-81 83 0
-76 85 0
-79 85 0
-82 85 0
-86 85 0
76 79 82 86 -85 0
84 -85 0
-84 85 0
-87 88 0
-89 88 0
87 89 -88 0
90 -88 0
-90 88 0
-91 92 0
-93 92 0
91 93 -92 0
89 -92 0
-89 92 0
-94 95 0
-96 95 0
94 96 -95 0
93 -95 0
-93 95 0
-97 98 0
-99 98 0
97 99 -98 0
96 -98 0
-96 98 0
99 -100 0
100 -99 0
-101 102 0
-103 102 0
101 103 -102 0
104 -102 0
-104 102 0
-105 106 0
-107 106 0
105 107 -106 0
103 -106 0
-103 106 0
-108 109 0
-110 109 0
108 110 -109 0
107 -109 0
-107 109 0
-111 112 0
-113 112 0
111 113 -112 0
110 -112 0
-110 112 0
-114 115 0
-116 115 0
114 116 -115 0
113 -115 0
-113 115 0
-117 118 0
-119 118 0
117 119 -118 0
116 -118 0
-116 118 0
-111 120 0
-114 120 0
-117 120 0
-121 120 0
111 114 117 121 -120 0
119 -120 0
-119 120 0
-122 123 0
-124 123 0
122 124 -123 0
125 -123 0
-125 123 0
-126 127 0
-128 127 0
126 128 -127 0
124 -127 0
-124 127 0
-129 130 0
-131 130 0
129 131 -130 0
128 -130 0
-128 130 0
-132 133 0
-134 133 0
132 134 -133 0
131 -133 0
-131 133 0
-135 136 0
-137 136 0
135 137 -136 0
134 -136 0
-134 136 0
-138 139 0
-140 139 0
138 140 -139 0
137 -139 0
-137 139 0
-135 141 0
-138 141 0
-142 141 0
135 138 142 -141 0
140 -141 0
-140 141 0
-143 144 0
-145 144 0
143 145 -144 0
146 -144 0
-146 144 0
-147 148 0
-149 148 0
147 149 -148 0
145 -148 0
-145 148 0
-150 151 0
-152 151 0
150 152 -151 0
149 -151 0
-149 151 0
-153 154 0
-155 154 0
153 155 -154 0
152 -154 0
-152 154 0
-156 157 0
-158 157 0
156 158 -157 0
155 -157 0
-155 157 0
-150 159 0
-153 159 0
-156 159 0
-160 159 0
150 153 156 160 -159 0
158 -159 0
-158 159 0
-161 162 0
-163 162 0
161 163 -162 0
164 -162 0
-164 162 0
-165 166 0
-167 166 0
165 167 -166 0
163 -166 0
-163 166 0
-168 169 0
-170 169 0
168 170 -169 0
167 -169 0
-167 169 0
-171 172 0
-173 172 0
171 173 -172 0
170 -172 0
-170 172 0
-174 175 0
-176 175 0
174 176 -175 0
173 -175 0
-173 175 0
-177 178 0
-179 178 0
177 179 -178 0
176 -178 0
-176 178 0
-174 180 0
-177 180 0
-181 180 0
174 177 181 -180 0
179 -180 0
-179 180 0
-182 183 0
-184 183 0
182 184 -183 0
185 -183 0
-185 183 0
-186 187 0
-188 187 0
186 188 -187 0
184 -187 0
-184 187 0
-189 190 0
-191 190 0
189 191 -190 0
188 -190 0
-188 190 0
-192 193 0
-194 193 0
192 194 -193 0
191 -193 0
-191 193 0
-192 195 0
-196 195 0
192 196 -195 0
194 -195 0
-194 195 0
-197 198 0
-199 198 0
197 199 -198 0
200 -198 0
-200 198 0
-201 202 0
-203 202 0
201 203 -202 0
199 -202 0
-199 202 0
203 -204 0
204 -203 0
-205 206 0
-207 206 0
205 207 -206 0
208 -206 0
-208 206 0
-209 210 0
-211 210 0
209 211 -210 0
207 -210 0
-207 210 0
-212 213 0
-214 213 0
212 214 -213 0
211 -213 0
-211 213 0
-215 216 0
-217 216 0
215 217 -216 0
214 -216 0
-214 216 0
-218 219 0
-220 219 0
218 220 -219 0
217 -219 0
-217 219 0
-221 222 0
-223 222 0
221 223 -222 0
220 -222 0
-220 222 0
-215 224 0
-218 224 0
-221 224 0
-225 224 0
215 218 221 225 -224 0
223 -224 0
-223 224 0
-226 227 0
-228 227 0
226 228 -227 0
229 -227 0
-229 227 0
-230 231 0
-232 231 0
230 232 -231 0
228 -231 0
-228 231 0
-233 234 0
-235 234 0
233 235 -234 0
232 -234 0
-232 234 0
-236 237 0
-238 237 0
236 238 -237 0
235 -237 0
-235 237 0
238 -239 0
239 -238 0
-240 241 0
-242 241 0
240 242 -241 0
243 -241 0
-243 241 0
-244 245 0
-246 245 0
244 246 -245 0
242 -245 0
-242 245 0
-247 248 0
-249 248 0
247 249 -248 0
246 -248 0
-246 248 0
-250 251 0
-252 251 0
250 252 -251 0
249 -251 0
-249 251 0
-250 253 0
-254 253 0
250 254 -253 0
252 -253 0
-252 253 0
-255 256 0
-257 256 0
255 257 -256 0
258 -256 0
-258 256 0
-259 260 0
-261 260 0
259 261 -260 0
257 -260 0
-257 260 0
-262 263 0
-264 263 0
262 264 -263 0
261 -263 0
-261 263 0
264 -265 0
265 -264 0
-266 267 0
-268 267 0
266 268 -267 0
269 -267 0
-269 267 0
-270 271 0
-272 271 0
270 272 -271 0
268 -271 0
-268 271 0
-273 274 0
-275 274 0
273 275 -274 0
272 -274 0
-272 274 0
-276 277 0
-278 277 0
276 278 -277 0
275 -277 0
-275 277 0
-279 280 0
-281 280 0
279 281 -280 0
278 -280 0
-278 280 0
-282 283 0
-284 283 0
282 284 -283 0
281 -283 0
-281 283 0
-276 285 0
-279 285 0
-282 285 0
-286 285 0
276 279 282 286 -285 0
284 -285 0
-284 285 0
-287 288 0
-289 288 0
287 289 -288 0
290 -288 0
-290 288 0
-291 292 0
-293 292 0
291 293 -292 0
289 -292 0
-289 292 0
-294 295 0
-296 295 0
294 296 -295 0
293 -295 0
-293 295 0
-297 298 0
-299 298 0
297 299 -298 0
296 -298 0
-296 298 0
-294 300 0
-297 300 0
-301 300 0
294 297 301 -300 0
299 -300 0
-299 300 0
-302 303 0
-304 303 0
302 304 -303 0
305 -303 0
-305 303 0
-306 307 0
-308 307 0
306 308 -307 0
304 -307 0
-304 307 0
-309 310 0
-311 310 0
309 311 -310 0
308 -310 0
-308 310 0
-312 313 0
-314 313 0
312 314 -313 0
311 -313 0
-311 313 0
-309 315 0
-312 315 0
-316 315 0
309 312 316 -315 0
314 -315 0
-314 315 0
-317 318 0
-319 318 0
317 319 -318 0
320 -318 0
-320 318 0
-321 322 0
-323 322 0
321 323 -322 0
319 -322 0
-319 322 0
-324 325 0
-326 325 0
324 326 -325 0
323 -325 0
-323 325 0
-327 328 0
-329 328 0
327 329 -328 0
326 -328 0
-326 328 0
329 -330 0
330 -329 0
-331 332 0
-333 332 0
331 333 -332 0
334 -332 0
-334 332 0
-335 336 0
-337 336 0
335 337 -336 0
333 -336 0
-333 336 0
-338 339 0
-340 339 0
338 340 -339 0
337 -339 0
-337 339 0
-341 342 0
-343 342 0
341 343 -342 0
340 -342 0
-340 342 0
343 -344 0
344 -343 0
345 346 0
347 346 0
-345 -347 -346 0
-21 346 -348 0
21 -346 -348 0
348 -346 -21 0
21 346 348 0
-348 0
349 350 0
351 350 0
-349 -351 -350 0
-25 350 -352 0
25 -350 -352 0
352 -350 -25 0
25 350 352 0
-352 0
353 354 0
355 354 0
-353 -355 -354 0
-28 354 -356 0
28 -354 -356 0
356 -354 -28 0
28 354 356 0
-356 0
357 358 0
359 358 0
-357 -359 -358 0
-31 358 -360 0
31 -358 -360 0
360 -358 -31 0
31 358 360 0
-360 0
361 362 0
363 362 0
-361 -363 -362 0
-34 362 -364 0
34 -362 -364 0
364 -362 -34 0
34 362 364 0
-364 0
365 366 0
367 366 0
-365 -367 -366 0
-38 366 -368 0
38 -366 -368 0
368 -366 -38 0
38 366 368 0
-368 0
369 370 0
371 370 0
-369 -371 -370 0
-39 370 -372 0
39 -370 -372 0
372 -370 -39 0
39 370 372 0
-372 0
373 374 0
375 374 0
-373 -375 -374 0
-43 374 -376 0
43 -374 -376 0
376 -374 -43 0
43 374 376 0
-376 0
377 378 0
379 378 0
-377 -379 -378 0
-46 378 -380 0
46 -378 -380 0
380 -378 -46 0
46 378 380 0
-380 0
381 382 0
383 382 0
-381 -383 -382 0
-49 382 -384 0
49 -382 -384 0
384 -382 -49 0
49 382 384 0
-384 0
385 386 0
387 386 0
-385 -387 -386 0
-52 386 -388 0
52 -386 -388 0
388 -386 -52 0
52 386 388 0
-388 0
389 390 0
391 390 0
-389 -391 -390 0
-56 390 -392 0
56 -390 -392 0
392 -390 -56 0
56 390 392 0
-392 0
393 394 0
395 394 0
-393 -395 -394 0
-57 394 -396 0
57 -394 -396 0
396 -394 -57 0
57 394 396 0
-396 0
397 398 0
399 398 0
-397 -399 -398 0
-61 398 -400 0
61 -398 -400 0
400 -398 -61 0
61 398 400 0
-400 0
401 402 0
403 402 0
-401 -403 -402 0
-64 402 -404 0
64 -402 -404 0
404 -402 -64 0
64 402 404 0
-404 0
405 406 0
407 406 0
-405 -407 -406 0
-68 406 -408 0
68 -406 -408 0
408 -406 -68 0
68 406 408 0
-408 0
409 410 0
411 410 0
-409 -411 -410 0
-69 410 -412 0
69 -410 -412 0
412 -410 -69 0
69 410 412 0
-412 0
413 414 0
415 414 0
-413 -415 -414 0
-73 414 -416 0
73 -414 -416 0
416 -414 -73 0
73 414 416 0
-416 0
417 418 0
419 418 0
-417 -419 -418 0
-76 418 -420 0
76 -418 -420 0
420 -418 -76 0
76 418 420 0
-420 0
421 422 0
423 422 0
-421 -423 -422 0
-79 422 -424 0
79 -422 -424 0
424 -422 -79 0
79 422 424 0
-424 0
425 426 0
427 426 0
-425 -427 -426 0
-82 426 -428 0
82 -426 -428 0
428 -426 -82 0
82 426 428 0
-428 0
429 430 0
431 430 0
-429 -431 -430 0
-86 430 -432 0
86 -430 -432 0
432 -430 -86 0
86 430 432 0
-432 0
433 434 0
435 434 0
-433 -435 -434 0
-87 434 -436 0
87 -434 -436 0
436 -434 -87 0
87 434 436 0
-436 0
437 438 0
439 438 0
-437 -439 -438 0
-91 438 -440 0
91 -438 -440 0
440 -438 -91 0
91 438 440 0
-440 0
441 442 0
443 442 0
-441 -443 -442 0
-94 442 -444 0
94 -442 -444 0
444 -442 -94 0
94 442 444 0
-444 0
445 446 0
447 446 0
-445 -447 -446 0
-97 446 -448 0
97 -446 -448 0
448 -446 -97 0
97 446 448 0
-448 0
449 450 0
451 450 0
-449 -451 -450 0
-100 450 -452 0
100 -450 -452 0
452 -450 -100 0
100 450 452 0
-452 0
453 454 0
455 454 0
-453 -455 -454 0
-101 454 -456 0
101 -454 -456 0
456 -454 -101 0
101 454 456 0
-456 0
457 458 0
459 458 0
-457 -459 -458 0
-105 458 -460 0
105 -458 -460 0
460 -458 -105 0
105 458 460 0
-460 0
461 462 0
463 462 0
-461 -463 -462 0
-108 462 -464 0
108 -462 -464 0
464 -462 -108 0
108 462 464 0
-464 0
465 466 0
467 466 0
-465 -467 -466 0
-111 466 -468 0
111 -466 -468 0
468 -466 -111 0
111 466 468 0
-468 0
469 470 0
471 470 0
-469 -471 -470 0
-114 470 -472 0
114 -470 -472 0
472 -470 -114 0
114 470 472 0
-472 0
473 474 0
475 474 0
-473 -475 -474 0
-117 474 -476 0
117 -474 -476 0
476 -474 -117 0
117 474 476 0
-476 0
477 478 0
479 478 0
-477 -479 -478 0
-121 478 -480 0
121 -478 -480 0
480 -478 -121 0
121 478 480 0
-480 0
481 482 0
483 482 0
-481 -483 -482 0
-122 482 -484 0
122 -482 -484 0
484 -482 -122 0
122 482 484 0
-484 0
485 486 0
487 486 0
-485 -487 -486 0
-126 486 -488 0
126 -486 -488 0
488 -486 -126 0
126 486 488 0
-488 0
489 490 0
491 490 0
-489 -491 -490 0
-129 490 -492 0
129 -490 -492 0
492 -490 -129 0
129 490 492 0
-492 0
493 494 0
495 494 0
-493 -495 -494 0
-132 494 -496 0
132 -494 -496 0
496 -494 -132 0
132 494 496 0
-496 0
497 498 0
499 498 0
-497 -499 -498 0
-135 498 -500 0
135 -498 -500 0
500 -498 -135 0
135 498 500 0
-500 0
501 502 0
503 502 0
-501 -503 -502 0
-138 502 -504 0
138 -502 -504 0
504 -502 -138 0
138 502 504 0
-504 0
505 506 0
507 506 0
-505 -507 -506 0
-142 506 -508 0
142 -506 -508 0
508 -506 -142 0
142 506 508 0
-508 0
509 510 0
511 510 0
-509 -511 -510 0
-143 510 -512 0
143 -510 -512 0
512 -510 -143 0
143 510 512 0
-512 0
513 514 0
515 514 0
-513 -515 -514 0
-147 514 -516 0
147 -514 -516 0
516 -514 -147 0
147 514 516 0
-516 0
517 518 0
519 518 0
-517 -519 -518 0
-150 518 -520 0
150 -518 -520 0
520 -518 -150 0
150 518 520 0
-520 0
521 522 0
523 522 0
-521 -523 -522 0
-153 522 -524 0
153 -522 -524 0
524 -522 -153 0
153 522 524 0
-524 0
525 526 0
527 526 0
-525 -527 -526 0
-156 526 -528 0
156 -526 -528 0
528 -526 -156 0
156 526 528 0
-528 0
529 530 0
531 530 0
-529 -531 -530 0
-160 530 -532 0
160 -530 -532 0
532 -530 -160 0
160 530 532 0
-532 0
533 534 0
535 534 0
-533 -535 -534 0
-161 534 -536 0
161 -534 -536 0
536 -534 -161 0
161 534 536 0
-536 0
537 538 0
539 538 0
-537 -539 -538 0
-165 538 -540 0
165 -538 -540 0
540 -538 -165 0
165 538 540 0
-540 0
541 542 0
543 542 0
-541 -543 -542 0
-168 542 -544 0
168 -542 -544 0
544 -542 -168 0
168 542 544 0
-544 0
545 546 0
547 546 0
-545 -547 -546 0
-171 546 -548 0
171 -546 -548 0
548 -546 -171 0
171 546 548 0
-548 0
549 550 0
551 550 0
-549 -551 -550 0
-174 550 -552 0
174 -550 -552 0
552 -550 -174 0
174 550 552 0
-552 0
553 554 0
555 554 0
-553 -555 -554 0
-177 554 -556 0
177 -554 -556 0
556 -554 -177 0
177 554 556 0
-556 0
557 558 0
559 558 0
-557 -559 -558 0
-181 558 -560 0
181 -558 -560 0
560 -558 -181 0
181 558 560 0
-560 0
561 562 0
563 562 0
-561 -563 -562 0
-182 562 -564 0
182 -562 -564 0
564 -562 -182 0
182 562 564 0
-564 0
565 566 0
567 566 0
-565 -567 -566 0
-186 566 -568 0
186 -566 -568 0
568 -566 -186 0
186 566 568 0
-568 0
569 570 0
571 570 0
-569 -571 -570 0
-189 570 -572 0
189 -570 -572 0
572 -570 -189 0
189 570 572 0
-572 0
573 574 0
575 574 0
-573 -575 -574 0
-192 574 -576 0
192 -574 -576 0
576 -574 -192 0
192 574 576 0
-576 0
577 578 0
579 578 0
-577 -579 -578 0
-196 578 -580 0
196 -578 -580 0
580 -578 -196 0
196 578 580 0
-580 0
581 582 0
583 582 0
-581 -583 -582 0
-197 582 -584 0
197 -582 -584 0
584 -582 -197 0
197 582 584 0
-584 0
585 586 0
587 586 0
-585 -587 -586 0
-201 586 -588 0
201 -586 -588 0
588 -586 -201 0
201 586 588 0
-588 0
589 590 0
591 590 0
-589 -591 -590 0
-204 590 -592 0
204 -590 -592 0
592 -590 -204 0
204 590 592 0
-592 0
593 594 0
595 594 0
-593 -595 -594 0
-205 594 -596 0
205 -594 -596 0
596 -594 -205 0
205 594 596 0
-596 0
597 598 0
599 598 0
-597 -599 -598 0
-209 598 -600 0
209 -598 -600 0
600 -598 -209 0
209 598 600 0
-600 0
601 602 0
603 602 0
-601 -603 -602 0
-212 602 -604 0
212 -602 -604 0
604 -602 -212 0
212 602 604 0
-604 0
605 606 0
607 606 0
-605 -607 -606 0
-215 606 -608 0
215 -606 -608 0
608 -606 -215 0
215 606 608 0
-608 0
609 610 0
611 610 0
-609 -611 -610 0
-218 610 -612 0
218 -610 -612 0
612 -610 -218 0
218 610 612 0
-612 0
613 614 0
615 614 0
-613 -615 -614 0
-221 614 -616 0
221 -614 -616 0
616 -614 -221 0
221 614 616 0
-616 0
617 618 0
619 618 0
-617 -619 -618 0
-225 618 -620 0
225 -618 -620 0
620 -618 -225 0
225 618 620 0
-620 0
621 622 0
623 622 0
-621 -623 -622 0
-226 622 -624 0
226 -622 -624 0
624 -622 -226 0
226 622 624 0
-624 0
625 626 0
627 626 0
-625 -627 -626 0
-230 626 -628 0
230 -626 -628 0
628 -626 -230 0
230 626 628 0
-628 0
629 630 0
631 630 0
-629 -631 -630 0
-233 630 -632 0
233 -630 -632 0
632 -630 -233 0
233 630 632 0
-632 0
633 634 0
635 634 0
-633 -635 -634 0
-236 634 -636 0
236 -634 -636 0
636 -634 -236 0
236 634 636 0
-636 0
637 638 0
639 638 0
-637 -639 -638 0
-239 638 -640 0
239 -638 -640 0
640 -638 -239 0
239 638 640 0
-640 0
641 642 0
643 642 0
-641 -643 -642 0
-240 642 -644 0
240 -642 -644 0
644 -642 -240 0
240 642 644 0
-644 0
645 646 0
647 646 0
-645 -647 -646 0
-244 646 -648 0
244 -646 -648 0
648 -646 -244 0
244 646 648 0
-648 0
649 650 0
651 650 0
-649 -651 -650 0
-247 650 -652 0
247 -650 -652 0
652 -650 -247 0
247 650 652 0
-652 0
653 654 0
655 654 0
-653 -655 -654 0
-250 654 -656 0
250 -654 -656 0
656 -654 -250 0
250 654 656 0
-656 0
657 658 0
659 658 0
-657 -659 -658 0
-254 658 -660 0
254 -658 -660 0
660 -658 -254 0
254 658 660 0
-660 0
661 662 0
663 662 0
-661 -663 -662 0
-255 662 -664 0
255 -662 -664 0
664 -662 -255 0
255 662 664 0
-664 0
665 666 0
667 666 0
-665 -667 -666 0
-259 666 -668 0
259 -666 -668 0
668 -666 -259 0
259 666 668 0
-668 0
669 670 0
671 670 0
-669 -671 -670 0
-262 670 -672 0
262 -670 -672 0
672 -670 -262 0
262 670 672 0
-672 0
673 674 0
675 674 0
-673 -675 -674 0
-265 674 -676 0
265 -674 -676 0
676 -674 -265 0
265 674 676 0
-676 0
677 678 0
679 678 0
-677 -679 -678 0
-266 678 -680 0
266 -678 -680 0
680 -678 -266 0
266 678 680 0
-680 0
681 682 0
683 682 0
-681 -683 -682 0
-270 682 -684 0
270 -682 -684 0
684 -682 -270 0
270 682 684 0
-684 0
685 686 0
687 686 0
-685 -687 -686 0
-273 686 -688 0
273 -686 -688 0
688 -686 -273 0
273 686 688 0
-688 0
689 690 0
691 690 0
-689 -691 -690 0
-276 690 -692 0
276 -690 -692 0
692 -690 -276 0
276 690 692 0
-692 0
693 694 0
695 694 0
-693 -695 -694 0
-279 694 -696 0
279 -694 -696 0
696 -694 -279 0
279 694 696 0
-696 0
697 698 0
699 698 0
-697 -699 -698 0
-282 698 -700 0
282 -698 -700 0
700 -698 -282 0
282 698 700 0
-700 0
701 702 0
703 702 0
-701 -703 -702 0
-286 702 -704 0
286 -702 -704 0
704 -702 -286 0
286 702 704 0
-704 0
705 706 0
707 706 0
-705 -707 -706 0
-287 706 -708 0
287 -706 -708 0
708 -706 -287 0
287 706 708 0
-708 0
709 710 0
711 710 0
-709 -711 -710 0
-291 710 -712 0
291 -710 -712 0
712 -710 -291 0
291 710 712 0
-712 0
713 714 0
715 714 0
-713 -715 -714 0
-294 714 -716 0
294 -714 -716 0
716 -714 -294 0
294 714 716 0
-716 0
717 718 0
719 718 0
-717 -719 -718 0
-297 718 -720 0
297 -718 -720 0
720 -718 -297 0
297 718 720 0
-720 0
721 722 0
723 722 0
-721 -723 -722 0
-301 722 -724 0
301 -722 -724 0
724 -722 -301 0
301 722 724 0
-724 0
725 726 0
727 726 0
-725 -727 -726 0
-302 726 -728 0
302 -726 -728 0
728 -726 -302 0
302 726 728 0
-728 0
729 730 0
731 730 0
-729 -731 -730 0
-306 730 -732 0
306 -730 -732 0
732 -730 -306 0
306 730 732 0
-732 0
733 734 0
735 734 0
-733 -735 -734 0
-309 734 -736 0
309 -734 -736 0
736 -734 -309 0
309 734 736 0
-736 0
737 738 0
739 738 0
-737 -739 -738 0
-312 738 -740 0
312 -738 -740 0
740 -738 -312 0
312 738 740 0
-740 0
741 742 0
743 742 0
-741 -743 -742 0
-316 742 -744 0
316 -742 -744 0
744 -742 -316 0
316 742 744 0
-744 0
745 746 0
747 746 0
-745 -747 -746 0
-317 746 -748 0
317 -746 -748 0
748 -746 -317 0
317 746 748 0
-748 0
749 750 0
751 750 0
-749 -751 -750 0
-321 750 -752 0
321 -750 -752 0
752 -750 -321 0
321 750 752 0
-752 0
753 754 0
755 754 0
-753 -755 -754 0
-324 754 -756 0
324 -754 -756 0
756 -754 -324 0
324 754 756 0
-756 0
757 758 0
759 758 0
-757 -759 -758 0
-327 758 -760 0
327 -758 -760 0
760 -758 -327 0
327 758 760 0
-760 0
761 762 0
763 762 0
-761 -763 -762 0
-330 762 -764 0
330 -762 -764 0
764 -762 -330 0
330 762 764 0
-764 0
765 766 0
767 766 0
-765 -767 -766 0
-331 766 -768 0
331 -766 -768 0
768 -766 -331 0
331 766 768 0
-768 0
769 770 0
771 770 0
-769 -771 -770 0
-335 770 -772 0
335 -770 -772 0
772 -770 -335 0
335 770 772 0
-772 0
773 774 0
775 774 0
-773 -775 -774 0
-338 774 -776 0
338 -774 -776 0
776 -774 -338 0
338 774 776 0
-776 0
777 778 0
779 778 0
-777 -779 -778 0
-341 778 -780 0
341 -778 -780 0
780 -778 -341 0
341 778 780 0
-780 0
781 782 0
783 782 0
-781 -783 -782 0
-344 782 -784 0
344 -782 -784 0
784 -782 -344 0
344 782 784 0
-784 0
-345 0
-349 0
-353 0
357 0
-361 0
-365 0
-369 0
373 0
-377 0
381 0
385 0
389 0
393 0
397 0
401 0
405 0
-409 0
-413 0
417 0
421 0
-425 0
429 0
433 0
437 0
441 0
-445 0
449 0
-453 0
457 0
-461 0
465 0
-469 0
473 0
477 0
-481 0
485 0
-489 0
-493 0
-497 0
-501 0
505 0
-509 0
513 0
517 0
521 0
525 0
529 0
-533 0
537 0
541 0
-545 0
549 0
-553 0
-557 0
-561 0
565 0
569 0
-573 0
-577 0
-581 0
585 0
-589 0
-593 0
-597 0
-601 0
605 0
609 0
-613 0
617 0
621 0
-625 0
629 0
-633 0
637 0
-641 0
-645 0
649 0
653 0
-657 0
-661 0
-665 0
669 0
-673 0
-677 0
-681 0
-685 0
689 0
-693 0
697 0
701 0
-705 0
709 0
713 0
-717 0
-721 0
-725 0
729 0
733 0
737 0
-741 0
745 0
-749 0
753 0
-757 0
761 0
-765 0
-769 0
-773 0
777 0
-781 0
-351 785 0
-786 785 0
351 786 -785 0
347 -785 0
-347 785 0
-355 787 0
-788 787 0
355 788 -787 0
351 -787 0
-351 787 0
-359 789 0
-790 789 0
359 790 -789 0
355 -789 0
-355 789 0
-363 791 0
-792 791 0
363 792 -791 0
359 -791 0
-359 791 0
-367 793 0
-794 793 0
367 794 -793 0
363 -793 0
-363 793 0
-794 795 0
-796 795 0
794 796 -795 0
367 -795 0
-367 795 0
-375 797 0
-798 797 0
375 798 -797 0
371 -797 0
-371 797 0
-379 799 0
-800 799 0
379 800 -799 0
375 -799 0
-375 799 0
-383 801 0
-802 801 0
383 802 -801 0
379 -801 0
-379 801 0
-387 803 0
-804 803 0
387 804 -803 0
383 -803 0
-383 803 0
-391 805 0
-806 805 0
391 806 -805 0
387 -805 0
-387 805 0
-802 807 0
-804 807 0
-806 807 0
-808 807 0
802 804 806 808 -807 0
391 -807 0
-391 807 0
-399 809 0
-810 809 0
399 810 -809 0
395 -809 0
-395 809 0
-403 811 0
-812 811 0
403 812 -811 0
399 -811 0
-399 811 0
-407 813 0
-814 813 0
407 814 -813 0
403 -813 0
-403 813 0
-810 815 0
-812 815 0
-814 815 0
-816 815 0
810 812 814 816 -815 0
407 -815 0
-407 815 0
-415 817 0
-818 817 0
415 818 -817 0
411 -817 0
-411 817 0
-419 819 0
-820 819 0
419 820 -819 0
415 -819 0
-415 819 0
-423 821 0
-822 821 0
423 822 -821 0
419 -821 0
-419 821 0
-427 823 0
-824 823 0
427 824 -823 0
423 -823 0
-423 823 0
-431 825 0
-826 825 0
431 826 -825 0
427 -825 0
-427 825 0
-822 827 0
-824 827 0
-826 827 0
-828 827 0
822 824 826 828 -827 0
431 -827 0
-431 827 0
-439 829 0
-830 829 0
439 830 -829 0
435 -829 0
-435 829 0
-443 831 0
-832 831 0
443 832 -831 0
439 -831 0
-439 831 0
-447 833 0
-834 833 0
447 834 -833 0
443 -833 0
-443 833 0
-451 835 0
-836 835 0
451 836 -835 0
447 -835 0
-447 835 0
451 -837 0
837 -451 0
-459 838 0
-839 838 0
459 839 -838 0
455 -838 0
-455 838 0
-463 840 0
-841 840 0
463 841 -840 0
459 -840 0
-459 840 0
-467 842 0
-843 842 0
467 843 -842 0
463 -842 0
-463 842 0
-471 844 0
-845 844 0
471 845 -844 0
467 -844 0
-467 844 0
-475 846 0
-847 846 0
475 847 -846 0
471 -846 0
-471 846 0
-479 848 0
-849 848 0
479 849 -848 0
475 -848 0
-475 848 0
-845 850 0
-847 850 0
-849 850 0
-851 850 0
845 847 849 851 -850 0
479 -850 0
-479 850 0
-487 852 0
-853 852 0
487 853 -852 0
483 -852 0
-483 852 0
-491 854 0
-855 854 0
491 855 -854 0
487 -854 0
-487 854 0
-495 856 0
-857 856 0
495 857 -856 0
491 -856 0
-491 856 0
-499 858 0
-859 858 0
499 859 -858 0
495 -858 0
-495 858 0
-503 860 0
-861 860 0
503 861 -860 0
499 -860 0
-499 860 0
-507 862 0
-863 862 0
507 863 -862 0
503 -862 0
-503 862 0
-861 864 0
-863 864 0
-865 864 0
861 863 865 -864 0
507 -864 0
-507 864 0
-515 866 0
-867 866 0
515 867 -866 0
511 -866 0
-511 866 0
-519 868 0
-869 868 0
519 869 -868 0
515 -868 0
-515 868 0
-523 870 0
-871 870 0
523 871 -870 0
519 -870 0
-519 870 0
-527 872 0
-873 872 0
527 873 -872 0
523 -872 0
-523 872 0
-531 874 0
-875 874 0
531 875 -874 0
527 -874 0
-527 874 0
-871 876 0
-873 876 0
-875 876 0
-877 876 0
871 873 875 877 -876 0
531 -876 0
-531 876 0
-539 878 0
-879 878 0
539 879 -878 0
535 -878 0
-535 878 0
-543 880 0
-881 880 0
543 881 -880 0
539 -880 0
-539 880 0
-547 882 0
-883 882 0
547 883 -882 0
543 -882 0
-543 882 0
-551 884 0
-885 884 0
551 885 -884 0
547 -884 0
-547 884 0
-555 886 0
-887 886 0
555 887 -886 0
551 -886 0
-551 886 0
-559 888 0
-889 888 0
559 889 -888 0
555 -888 0
-555 888 0
-887 890 0
-889 890 0
-891 890 0
887 889 891 -890 0
559 -890 0
-559 890 0
-567 892 0
-893 892 0
567 893 -892 0
563 -892 0
-563 892 0
-571 894 0
-895 894 0
571 895 -894 0
567 -894 0
-567 894 0
-575 896 0
-897 896 0
575 897 -896 0
571 -896 0
-571 896 0
-579 898 0
-899 898 0
579 899 -898 0
575 -898 0
-575 898 0
-899 900 0
-901 900 0
899 901 -900 0
579 -900 0
-579 900 0
-587 902 0
-903 902 0
587 903 -902 0
583 -902 0
-583 902 0
-591 904 0
-905 904 0
591 905 -904 0
587 -904 0
-587 904 0
591 -906 0
906 -591 0
-599 907 0
-908 907 0
599 908 -907 0
595 -907 0
-595 907 0
-603 909 0
-910 909 0
603 910 -909 0
599 -909 0
-599 909 0
-607 911 0
-912 911 0
607 912 -911 0
603 -911 0
-603 911 0
-611 913 0
-914 913 0
611 914 -913 0
607 -913 0
-607 913 0
-615 915 0
-916 915 0
615 916 -915 0
611 -915 0
-611 915 0
-619 917 0
-918 917 0
619 918 -917 0
615 -917 0
-615 917 0
-914 919 0
-916 919 0
-918 919 0
-920 919 0
914 916 918 920 -919 0
619 -919 0
-619 919 0
-627 921 0
-922 921 0
627 922 -921 0
623 -921 0
-623 921 0
-631 923 0
-924 923 0
631 924 -923 0
627 -923 0
-627 923 0
-635 925 0
-926 925 0
635 926 -925 0
631 -925 0
-631 925 0
-639 927 0
-928 927 0
639 928 -927 0
635 -927 0
-635 927 0
639 -929 0
929 -639 0
-647 930 0
-931 930 0
647 931 -930 0
643 -930 0
-643 930 0
-651 932 0
-933 932 0
651 933 -932 0
647 -932 0
-647 932 0
-655 934 0
-935 934 0
655 935 -934 0
651 -934 0
-651 934 0
-659 936 0
-937 936 0
659 937 -936 0
655 -936 0
-655 936 0
-937 938 0
-939 938 0
937 939 -938 0
659 -938 0
-659 938 0
-667 940 0
-941 940 0
667 941 -940 0
663 -940 0
-663 940 0
-671 942 0
-943 942 0
671 943 -942 0
667 -942 0
-667 942 0
-675 944 0
-945 944 0
675 945 -944 0
671 -944 0
-671 944 0
675 -946 0
946 -675 0
-683 947 0
-948 947 0
683 948 -947 0
679 -947 0
-679 947 0
-687 949 0
-950 949 0
687 950 -949 0
683 -949 0
-683 949 0
-691 951 0
-952 951 0
691 952 -951 0
687 -951 0
-687 951 0
-695 953 0
-954 953 0
695 954 -953 0
691 -953 0
-691 953 0
-699 955 0
-956 955 0
699 956 -955 0
695 -955 0
-695 955 0
-703 957 0
-958 957 0
703 958 -957 0
699 -957 0
-699 957 0
-954 959 0
-956 959 0
-958 959 0
-960 959 0
954 956 958 960 -959 0
703 -959 0
-703 959 0
-711 961 0
-962 961 0
711 962 -961 0
707 -961 0
-707 961 0
-715 963 0
-964 963 0
715 964 -963 0
711 -963 0
-711 963 0
-719 965 0
-966 965 0
719 966 -965 0
715 -965 0
-715 965 0
-723 967 0
-968 967 0
723 968 -967 0
719 -967 0
-719 967 0
-966 969 0
-968 969 0
-970 969 0
966 968 970 -969 0
723 -969 0
-723 969 0
-731 971 0
-972 971 0
731 972 -971 0
727 -971 0
-727 971 0
-735 973 0
-974 973 0
735 974 -973 0
731 -973 0
-731 973 0
-739 975 0
-976 975 0
739 976 -975 0
735 -975 0
-735 975 0
-743 977 0
-978 977 0
743 978 -977 0
739 -977 0
-739 977 0
-976 979 0
-978 979 0
-980 979 0
976 978 980 -979 0
743 -979 0
-743 979 0
-751 981 0
-982 981 0
751 982 -981 0
747 -981 0
-747 981 0
-755 983 0
-984 983 0
755 984 -983 0
751 -983 0
-751 983 0
-759 985 0
-986 985 0
759 986 -985 0
755 -985 0
-755 985 0
-763 987 0
-988 987 0
763 988 -987 0
759 -987 0
-759 987 0
763 -989 0
989 -763 0
-771 990 0
-991 990 0
771 991 -990 0
767 -990 0
-767 990 0
-775 992 0
-993 992 0
775 993 -992 0
771 -992 0
-771 992 0
-779 994 0
-995 994 0
779 995 -994 0
775 -994 0
-775 994 0
-783 996 0
-997 996 0
783 997 -996 0
779 -996 0
-779 996 0
783 -998 0
998 -783 0
-786 0
788 0
790 0
792 0
794 0
-796 0
-798 0
800 0
-802 0
804 0
-806 0
-808 0
810 0
812 0
-814 0
-816 0
-818 0
820 0
822 0
824 0
826 0
-828 0
-830 0
-832 0
834 0
836 0
837 0
-839 0
-841 0
843 0
-845 0
847 0
-849 0
851 0
853 0
-855 0
857 0
-859 0
-861 0
-863 0
-865 0
-867 0
869 0
-871 0
873 0
875 0
-877 0
-879 0
881 0
-883 0
-885 0
887 0
-889 0
891 0
893 0
-895 0
897 0
899 0
-901 0
903 0
-905 0
-906 0
908 0
910 0
-912 0
-914 0
-916 0
-918 0
-920 0
-922 0
-924 0
-926 0
-928 0
-929 0
-931 0
-933 0
-935 0
-937 0
-939 0
941 0
943 0
-945 0
-946 0
-948 0
950 0
952 0
-954 0
-956 0
-958 0
-960 0
-962 0
-964 0
-966 0
-968 0
-970 0
972 0
-974 0
-976 0
-978 0
-980 0
-982 0
-984 0
-986 0
-988 0
-989 0
-991 0
993 0
-995 0
-997 0
-998 0
-999 -1000 0
-999 -1001 0
-999 -1002 0
-999 -1003 0
1004 -999 0
-999 -1005 0
-999 -1006 0
-999 -1007 0
1008 -999 0
-999 -1009 0
1010 -999 0
1011 -999 0
1012 -999 0
1013 -999 0
1014 -999 0
1015 -999 0
1016 -999 0
-999 -1017 0
-999 -1018 0
1019 -999 0
1020 -999 0
-999 -1021 0
1022 -999 0
1023 -999 0
-999 1024 0
-999 1025 0
-999 -1026 0
-999 1027 0
-999 -1028 0
-999 1029 0
-999 -1030 0
1031 -999 0
-999 -1032 0
1033 -999 0
1034 -999 0
-999 -1035 0
1036 -999 0
-999 -1037 0
-999 -1038 0
-999 -1039 0
-999 -1040 0
1041 -999 0
-999 -1042 0
1043 -999 0
1044 -999 0
1045 -999 0
1046 -999 0
1047 -999 0
-999 -1048 0
1049 -999 0
1050 -999 0
-999 -1051 0
1052 -999 0
-999 -1053 0
-999 -1054 0
-999 -1055 0
1056 -999 0
1057 -999 0
-999 -1058 0
-999 -1059 0
-999 -1060 0
1061 -999 0
-999 -1062 0
-999 -1063 0
-999 -1064 0
-999 -1065 0
1066 -999 0
1067 -999 0
-999 -1068 0
1069 -999 0
1070 -999 0
-999 -1071 0
1072 -999 0
-999 -1073 0
1074 -999 0
-999 -1075 0
-999 -1076 0
1077 -999 0
1078 -999 0
-999 -1079 0
-999 -1080 0
-999 -1081 0
1082 -999 0
-999 -1083 0
-999 -1084 0
-999 -1085 0
-999 -1086 0
1087 -999 0
-999 -1088 0
1089 -999 0
1090 -999 0
-999 -1091 0
1092 -999 0
1093 -999 0
-999 -1094 0
-999 -1095 0
-999 -1096 0
1097 -999 0
1098 -999 0
1099 -999 0
-999 -1100 0
1101 -999 0
-999 -1102 0
1103 -999 0
-999 -1104 0
1105 -999 0
-999 -1106 0
-999 -1107 0
-999 -1108 0
1109 -999 0
-999 -1110 0
-1000 -1001 0
1002 -1000 0
1003 -1000 0
1004 -1000 0
1005 -1000 0
-1000 -1006 0
-1000 -1007 0
1008 -1000 0
-1000 -1009 0
1010 -1000 0
-1000 -1011 0
-1000 -1012 0
1013 -1000 0
1014 -1000 0
-1000 -1015 0
-1000 -1016 0
-1000 -1017 0
1018 -1000 0
1019 -1000 0
1020 -1000 0
1021 -1000 0
-1000 -1022 0
-1000 -1023 0
-1000 -1024 0
-1000 1025 0
-1000 1026 0
-1000 1027 0
-1000 -1028 0
-1000 -1029 0
-1000 1030 0
-1000 -1031 0
-1000 1032 0
-1000 -1033 0
1034 -1000 0
1035 -1000 0
-1000 -1036 0
1037 -1000 0
-1000 -1038 0
-1000 -1039 0
-1000 -1040 0
-1000 -1041 0
-1000 -1042 0
1043 -1000 0
-1000 -1044 0
1045 -1000 0
1046 -1000 0
-1000 -1047 0
-1000 -1048 0
1049 -1000 0
-1000 -1050 0
-1000 -1051 0
1052 -1000 0
-1000 -1053 0
1054 -1000 0
1055 -1000 0
-1000 -1056 0
1057 -1000 0
1058 -1000 0
-1000 -1059 0
1060 -1000 0
-1000 -1061 0
-1000 -1062 0
1063 -1000 0
1064 -1000 0
-1000 -1065 0
-1000 -1066 0
-1000 -1067 0
-1000 -1068 0
-1000 -1069 0
-1000 -1070 0
-1000 -1071 0
-1000 -1072 0
-1000 -1073 0
-1000 -1074 0
-1000 -1075 0
-1000 -1076 0
-1000 -1077 0
-1000 -1078 0
-1000 -1079 0
1080 -1000 0
1081 -1000 0
-1000 -1082 0
-1000 -1083 0
-1000 -1084 0
1085 -1000 0
1086 -1000 0
-1000 -1087 0
-1000 -1088 0
-1000 -1089 0
-1000 -1090 0
-1000 -1091 0
-1000 -1092 0
-1000 -1093 0
-1000 -1094 0
-1000 -1095 0
1096 -1000 0
-1000 -1097 0
-1000 -1098 0
-1000 -1099 0
-1000 -1100 0
-1000 -1101 0
-1000 -1102 0
-1000 -1103 0
-1000 -1104 0
-1000 -1105 0
-1000 -1106 0
1107 -1000 0
-1000 -1108 0
-1000 -1109 0
-1000 -1110 0
999 1000 0
-1111 0
-1112 0
-1113 0
-1114 0
-1115 0
-1116 0
-1117 0
-1118 0
